<number of tasks>
50

<cycle time>
1000

<order strength>
0.205


<task times>
1 224
2 207
3 22
4 111
5 246
6 23
7 271
8 313
9 65
10 88
11 165
12 49
13 54
14 88
15 226
16 297
17 406
18 124
19 21
20 250
21 558
22 107
23 518
24 36
25 335
26 343
27 111
28 172
29 408
30 76
31 489
32 39
33 248
34 156
35 21
36 61
37 189
38 243
39 342
40 219
41 211
42 70
43 142
44 342
45 381
46 159
47 505
48 89
49 184
50 323

<precedence relations>
1,9
1,10
2,7
3,10
3,11
4,8
5,17
6,12
7,17
9,13
10,14
10,15
10,18
11,16
12,31
12,43
13,24
13,46
14,35
15,22
15,25
16,19
16,23
16,27
17,20
18,21
19,31
20,49
21,29
22,27
23,28
24,26
25,30
27,32
27,35
27,42
28,32
28,34
29,33
29,36
29,37
30,36
30,37
31,38
32,45
33,40
33,41
34,42
34,43
36,39
38,44
40,48
43,46
43,47
43,50
45,49

<end>
